(set-info :smt-lib-version 2.6)
(set-logic QF_S)
(set-info :source |
Generated by: Hung-En Wang, Tzung-Lin Tsai, Chun-Han Lin, Fang Yu, and Jie-Hong R. Jiang
Generated on: 2019-02-28
Generator: Stranger
Application: Security analysis of string manipulating web applications
Target solver: CVC4, Norn, Z3-str2
Publication:
Hung-En Wang, Tzung-Lin Tsai, Chun-Han Lin, Fang Yu, Jie-Hong R. Jiang:
String Analysis via Automata Manipulation with Logic Circuit Representation. CAV (1) 2016: 241-260.
|)
(set-info :license "https://creativecommons.org/licenses/by/4.0/")
(set-info :category "industrial")
(set-info :status unknown)

(declare-fun sigmaStar_0 () String)
(declare-fun sigmaStar_1 () String)
(declare-fun sigmaStar_2 () String)
(declare-fun sigmaStar_3 () String)
(declare-fun sigmaStar_4 () String)
(declare-fun sigmaStar_5 () String)
(declare-fun sigmaStar_6 () String)
(declare-fun sigmaStar_7 () String)
(declare-fun sigmaStar_8 () String)
(declare-fun sigmaStar_9 () String)
(declare-fun sigmaStar_10 () String)
(declare-fun sigmaStar_11 () String)
(declare-fun literal_12 () String)
(declare-fun x_13 () String)
(declare-fun literal_14 () String)
(declare-fun x_15 () String)
(declare-fun x_18 () String)
(declare-fun epsilon () String)
(declare-fun x_19 () String)
(declare-fun literal_20 () String)
(declare-fun x_21 () String)
(declare-fun x_22 () String)
(declare-fun literal_23 () String)
(declare-fun x_24 () String)
(declare-fun x_25 () String)
(declare-fun literal_26 () String)
(declare-fun x_27 () String)
(declare-fun x_28 () String)
(declare-fun literal_29 () String)
(declare-fun x_30 () String)
(declare-fun x_31 () String)
(declare-fun x_32 () String)
(declare-fun literal_33 () String)
(declare-fun x_34 () String)
(declare-fun x_35 () String)
(declare-fun literal_36 () String)
(declare-fun x_39 () String)
(declare-fun x_40 () String)
(declare-fun literal_37 () String)
(declare-fun literal_38 () String)
(declare-fun x_41 () String)
(declare-fun literal_42 () String)
(declare-fun x_43 () String)
(declare-fun x_44 () String)
(declare-fun literal_45 () String)
(declare-fun x_48 () String)
(declare-fun x_49 () String)
(declare-fun literal_46 () String)
(declare-fun literal_47 () String)
(declare-fun x_50 () String)
(declare-fun literal_51 () String)
(declare-fun x_52 () String)
(declare-fun x_53 () String)
(declare-fun literal_54 () String)
(declare-fun x_55 () String)
(declare-fun x_56 () String)
(declare-fun literal_57 () String)
(declare-fun x_58 () String)
(declare-fun x_59 () String)
(declare-fun literal_60 () String)
(declare-fun x_61 () String)
(declare-fun x_62 () String)
(declare-fun literal_63 () String)
(declare-fun x_64 () String)
(assert (= literal_12 "\u{3c}\u{74}\u{72}\u{3e}\u{0d}\u{0a}\u{3c}\u{74}\u{64}\u{20}\u{63}\u{6c}\u{61}\u{73}\u{73}\u{3d}\u{27}\u{74}\u{62}\u{6c}\u{27}\u{3e}"))
(assert (= x_13 (str.++ literal_12 sigmaStar_0)))
(assert (= literal_14 "\u{3c}\u{73}\u{70}\u{61}\u{6e}\u{20}\u{73}\u{74}\u{79}\u{6c}\u{65}\u{3d}\u{27}\u{63}\u{6f}\u{6c}\u{6f}\u{72}\u{3a}\u{23}\u{66}\u{66}\u{30}\u{30}\u{30}\u{30}\u{27}\u{3e}\u{2a}\u{3c}\u{2f}\u{73}\u{70}\u{61}\u{6e}\u{3e}\u{3c}\u{2f}\u{74}\u{64}\u{3e}\u{0d}\u{0a}\u{3c}\u{74}\u{64}\u{20}\u{63}\u{6c}\u{61}\u{73}\u{73}\u{3d}\u{27}\u{74}\u{62}\u{6c}\u{27}\u{3e}\u{3c}\u{69}\u{6e}\u{70}\u{75}\u{74}\u{20}\u{74}\u{79}\u{70}\u{65}\u{3d}\u{27}\u{74}\u{65}\u{78}\u{74}\u{27}\u{20}\u{6e}\u{61}\u{6d}\u{65}\u{3d}\u{27}\u{75}\u{73}\u{65}\u{72}\u{5f}\u{6e}\u{61}\u{6d}\u{65}\u{27}\u{20}\u{76}\u{61}\u{6c}\u{75}\u{65}\u{3d}\u{27}"))
(assert (= x_15 (str.++ x_13 literal_14)))
(assert (= epsilon ""))
(assert (or (= x_18 epsilon) (= x_18 sigmaStar_6)))
(assert (= x_19 (str.++ x_15 x_18)))
(assert (= literal_20 "\u{27}\u{20}\u{6d}\u{61}\u{78}\u{6c}\u{65}\u{6e}\u{67}\u{74}\u{68}\u{3d}\u{27}\u{33}\u{30}\u{27}\u{20}\u{63}\u{6c}\u{61}\u{73}\u{73}\u{3d}\u{27}\u{74}\u{65}\u{78}\u{74}\u{62}\u{6f}\u{78}\u{27}\u{20}\u{73}\u{74}\u{79}\u{6c}\u{65}\u{3d}\u{27}\u{77}\u{69}\u{64}\u{74}\u{68}\u{3a}\u{32}\u{30}\u{30}\u{70}\u{78}\u{3b}\u{27}\u{3e}\u{3c}\u{2f}\u{74}\u{64}\u{3e}\u{0d}\u{0a}\u{3c}\u{2f}\u{74}\u{72}\u{3e}\u{0d}\u{0a}\u{3c}\u{74}\u{72}\u{3e}\u{0d}\u{0a}\u{3c}\u{74}\u{64}\u{20}\u{63}\u{6c}\u{61}\u{73}\u{73}\u{3d}\u{27}\u{74}\u{62}\u{6c}\u{27}\u{3e}"))
(assert (= x_21 (str.++ x_19 literal_20)))
(assert (= x_22 (str.++ x_21 sigmaStar_1)))
(assert (= literal_23 "\u{3c}\u{2f}\u{74}\u{64}\u{3e}\u{0d}\u{0a}\u{3c}\u{74}\u{64}\u{20}\u{63}\u{6c}\u{61}\u{73}\u{73}\u{3d}\u{27}\u{74}\u{62}\u{6c}\u{27}\u{3e}\u{3c}\u{69}\u{6e}\u{70}\u{75}\u{74}\u{20}\u{74}\u{79}\u{70}\u{65}\u{3d}\u{27}\u{70}\u{61}\u{73}\u{73}\u{77}\u{6f}\u{72}\u{64}\u{27}\u{20}\u{6e}\u{61}\u{6d}\u{65}\u{3d}\u{27}\u{75}\u{73}\u{65}\u{72}\u{5f}\u{6e}\u{65}\u{77}\u{70}\u{61}\u{73}\u{73}\u{77}\u{6f}\u{72}\u{64}\u{27}\u{20}\u{6d}\u{61}\u{78}\u{6c}\u{65}\u{6e}\u{67}\u{74}\u{68}\u{3d}\u{27}\u{32}\u{30}\u{27}\u{20}\u{63}\u{6c}\u{61}\u{73}\u{73}\u{3d}\u{27}\u{74}\u{65}\u{78}\u{74}\u{62}\u{6f}\u{78}\u{27}\u{20}\u{73}\u{74}\u{79}\u{6c}\u{65}\u{3d}\u{27}\u{77}\u{69}\u{64}\u{74}\u{68}\u{3a}\u{32}\u{30}\u{30}\u{70}\u{78}\u{3b}\u{27}\u{3e}\u{3c}\u{2f}\u{74}\u{64}\u{3e}\u{0d}\u{0a}\u{3c}\u{2f}\u{74}\u{72}\u{3e}\u{0d}\u{0a}\u{3c}\u{74}\u{72}\u{3e}\u{0d}\u{0a}\u{3c}\u{74}\u{64}\u{20}\u{63}\u{6c}\u{61}\u{73}\u{73}\u{3d}\u{27}\u{74}\u{62}\u{6c}\u{27}\u{3e}"))
(assert (= x_24 (str.++ x_22 literal_23)))
(assert (= x_25 (str.++ x_24 sigmaStar_11)))
(assert (= literal_26 "\u{3c}\u{2f}\u{74}\u{64}\u{3e}\u{0d}\u{0a}\u{3c}\u{74}\u{64}\u{20}\u{63}\u{6c}\u{61}\u{73}\u{73}\u{3d}\u{27}\u{74}\u{62}\u{6c}\u{27}\u{3e}\u{3c}\u{69}\u{6e}\u{70}\u{75}\u{74}\u{20}\u{74}\u{79}\u{70}\u{65}\u{3d}\u{27}\u{70}\u{61}\u{73}\u{73}\u{77}\u{6f}\u{72}\u{64}\u{27}\u{20}\u{6e}\u{61}\u{6d}\u{65}\u{3d}\u{27}\u{75}\u{73}\u{65}\u{72}\u{5f}\u{6e}\u{65}\u{77}\u{70}\u{61}\u{73}\u{73}\u{77}\u{6f}\u{72}\u{64}\u{32}\u{27}\u{20}\u{6d}\u{61}\u{78}\u{6c}\u{65}\u{6e}\u{67}\u{74}\u{68}\u{3d}\u{27}\u{32}\u{30}\u{27}\u{20}\u{63}\u{6c}\u{61}\u{73}\u{73}\u{3d}\u{27}\u{74}\u{65}\u{78}\u{74}\u{62}\u{6f}\u{78}\u{27}\u{20}\u{73}\u{74}\u{79}\u{6c}\u{65}\u{3d}\u{27}\u{77}\u{69}\u{64}\u{74}\u{68}\u{3a}\u{32}\u{30}\u{30}\u{70}\u{78}\u{3b}\u{27}\u{3e}\u{3c}\u{2f}\u{74}\u{64}\u{3e}\u{0d}\u{0a}\u{3c}\u{2f}\u{74}\u{72}\u{3e}\u{0d}\u{0a}\u{3c}\u{74}\u{72}\u{3e}\u{0d}\u{0a}\u{3c}\u{74}\u{64}\u{20}\u{63}\u{6c}\u{61}\u{73}\u{73}\u{3d}\u{27}\u{74}\u{62}\u{6c}\u{27}\u{3e}"))
(assert (= x_27 (str.++ x_25 literal_26)))
(assert (= x_28 (str.++ x_27 sigmaStar_4)))
(assert (= literal_29 "\u{3c}\u{73}\u{70}\u{61}\u{6e}\u{20}\u{73}\u{74}\u{79}\u{6c}\u{65}\u{3d}\u{27}\u{63}\u{6f}\u{6c}\u{6f}\u{72}\u{3a}\u{23}\u{66}\u{66}\u{30}\u{30}\u{30}\u{30}\u{27}\u{3e}\u{2a}\u{3c}\u{2f}\u{73}\u{70}\u{61}\u{6e}\u{3e}\u{3c}\u{2f}\u{74}\u{64}\u{3e}\u{0d}\u{0a}\u{3c}\u{74}\u{64}\u{20}\u{63}\u{6c}\u{61}\u{73}\u{73}\u{3d}\u{27}\u{74}\u{62}\u{6c}\u{27}\u{3e}\u{3c}\u{69}\u{6e}\u{70}\u{75}\u{74}\u{20}\u{74}\u{79}\u{70}\u{65}\u{3d}\u{27}\u{74}\u{65}\u{78}\u{74}\u{27}\u{20}\u{6e}\u{61}\u{6d}\u{65}\u{3d}\u{27}\u{75}\u{73}\u{65}\u{72}\u{5f}\u{65}\u{6d}\u{61}\u{69}\u{6c}\u{27}\u{20}\u{76}\u{61}\u{6c}\u{75}\u{65}\u{3d}\u{27}"))
(assert (= x_30 (str.++ x_28 literal_29)))
(assert (or (= x_31 epsilon) (= x_31 sigmaStar_9)))
(assert (= x_32 (str.++ x_30 x_31)))
(assert (= literal_33 "\u{27}\u{20}\u{6d}\u{61}\u{78}\u{6c}\u{65}\u{6e}\u{67}\u{74}\u{68}\u{3d}\u{27}\u{31}\u{30}\u{30}\u{27}\u{20}\u{63}\u{6c}\u{61}\u{73}\u{73}\u{3d}\u{27}\u{74}\u{65}\u{78}\u{74}\u{62}\u{6f}\u{78}\u{27}\u{20}\u{73}\u{74}\u{79}\u{6c}\u{65}\u{3d}\u{27}\u{77}\u{69}\u{64}\u{74}\u{68}\u{3a}\u{32}\u{30}\u{30}\u{70}\u{78}\u{3b}\u{27}\u{3e}\u{3c}\u{2f}\u{74}\u{64}\u{3e}\u{0d}\u{0a}\u{3c}\u{2f}\u{74}\u{72}\u{3e}\u{0d}\u{0a}\u{3c}\u{74}\u{72}\u{3e}\u{0d}\u{0a}\u{3c}\u{74}\u{64}\u{20}\u{63}\u{6c}\u{61}\u{73}\u{73}\u{3d}\u{27}\u{74}\u{62}\u{6c}\u{27}\u{3e}"))
(assert (= x_34 (str.++ x_32 literal_33)))
(assert (= x_35 (str.++ x_34 sigmaStar_3)))
(assert (= literal_36 "\u{3c}\u{2f}\u{74}\u{64}\u{3e}\u{0d}\u{0a}\u{3c}\u{74}\u{64}\u{20}\u{63}\u{6c}\u{61}\u{73}\u{73}\u{3d}\u{27}\u{74}\u{62}\u{6c}\u{27}\u{3e}\u{3c}\u{69}\u{6e}\u{70}\u{75}\u{74}\u{20}\u{74}\u{79}\u{70}\u{65}\u{3d}\u{27}\u{72}\u{61}\u{64}\u{69}\u{6f}\u{27}\u{20}\u{6e}\u{61}\u{6d}\u{65}\u{3d}\u{27}\u{75}\u{73}\u{65}\u{72}\u{5f}\u{68}\u{69}\u{64}\u{65}\u{5f}\u{65}\u{6d}\u{61}\u{69}\u{6c}\u{27}\u{20}\u{76}\u{61}\u{6c}\u{75}\u{65}\u{3d}\u{27}\u{31}\u{27}"))
(assert (= x_39 (str.++ x_35 literal_36)))
(assert (= literal_37 "\u{20}\u{63}\u{68}\u{65}\u{63}\u{6b}\u{65}\u{64}"))
(assert (= literal_38 ""))
(assert (or (= x_40 literal_37) (= x_40 literal_38)))
(assert (= x_41 (str.++ x_39 x_40)))
(assert (= literal_42 "\u{3e}"))
(assert (= x_43 (str.++ x_41 literal_42)))
(assert (= x_44 (str.++ x_43 sigmaStar_5)))
(assert (= literal_45 "\u{0d}\u{0a}\u{3c}\u{69}\u{6e}\u{70}\u{75}\u{74}\u{20}\u{74}\u{79}\u{70}\u{65}\u{3d}\u{27}\u{72}\u{61}\u{64}\u{69}\u{6f}\u{27}\u{20}\u{6e}\u{61}\u{6d}\u{65}\u{3d}\u{27}\u{75}\u{73}\u{65}\u{72}\u{5f}\u{68}\u{69}\u{64}\u{65}\u{5f}\u{65}\u{6d}\u{61}\u{69}\u{6c}\u{27}\u{20}\u{76}\u{61}\u{6c}\u{75}\u{65}\u{3d}\u{27}\u{30}\u{27}"))
(assert (= x_48 (str.++ x_44 literal_45)))
(assert (= literal_46 "\u{20}\u{63}\u{68}\u{65}\u{63}\u{6b}\u{65}\u{64}"))
(assert (= literal_47 ""))
(assert (or (= x_49 literal_46) (= x_49 literal_47)))
(assert (= x_50 (str.++ x_48 x_49)))
(assert (= literal_51 "\u{3e}"))
(assert (= x_52 (str.++ x_50 literal_51)))
(assert (= x_53 (str.++ x_52 sigmaStar_2)))
(assert (= literal_54 "\u{3c}\u{2f}\u{74}\u{64}\u{3e}\u{0d}\u{0a}\u{3c}\u{2f}\u{74}\u{72}\u{3e}\u{0d}\u{0a}\u{3c}\u{74}\u{72}\u{3e}\u{0d}\u{0a}\u{3c}\u{74}\u{64}\u{20}\u{63}\u{6c}\u{61}\u{73}\u{73}\u{3d}\u{27}\u{74}\u{62}\u{6c}\u{27}\u{3e}"))
(assert (= x_55 (str.++ x_53 literal_54)))
(assert (= x_56 (str.++ x_55 sigmaStar_10)))
(assert (= literal_57 "\u{3c}\u{2f}\u{74}\u{64}\u{3e}\u{0d}\u{0a}\u{3c}\u{74}\u{64}\u{20}\u{63}\u{6c}\u{61}\u{73}\u{73}\u{3d}\u{27}\u{74}\u{62}\u{6c}\u{27}\u{3e}\u{3c}\u{69}\u{6e}\u{70}\u{75}\u{74}\u{20}\u{74}\u{79}\u{70}\u{65}\u{3d}\u{27}\u{74}\u{65}\u{78}\u{74}\u{27}\u{20}\u{6e}\u{61}\u{6d}\u{65}\u{3d}\u{27}\u{75}\u{73}\u{65}\u{72}\u{5f}\u{6c}\u{6f}\u{63}\u{61}\u{74}\u{69}\u{6f}\u{6e}\u{27}\u{20}\u{76}\u{61}\u{6c}\u{75}\u{65}\u{3d}\u{27}"))
(assert (= x_58 (str.++ x_56 literal_57)))
(assert (= x_59 (str.++ x_58 sigmaStar_8)))
(assert (= literal_60 "\u{27}\u{20}\u{6d}\u{61}\u{78}\u{6c}\u{65}\u{6e}\u{67}\u{74}\u{68}\u{3d}\u{27}\u{35}\u{30}\u{27}\u{20}\u{63}\u{6c}\u{61}\u{73}\u{73}\u{3d}\u{27}\u{74}\u{65}\u{78}\u{74}\u{62}\u{6f}\u{78}\u{27}\u{20}\u{73}\u{74}\u{79}\u{6c}\u{65}\u{3d}\u{27}\u{77}\u{69}\u{64}\u{74}\u{68}\u{3a}\u{32}\u{30}\u{30}\u{70}\u{78}\u{3b}\u{27}\u{3e}\u{3c}\u{2f}\u{74}\u{64}\u{3e}\u{0d}\u{0a}\u{3c}\u{2f}\u{74}\u{72}\u{3e}\u{0d}\u{0a}\u{3c}\u{74}\u{72}\u{3e}\u{0d}\u{0a}\u{3c}\u{74}\u{64}\u{20}\u{63}\u{6c}\u{61}\u{73}\u{73}\u{3d}\u{27}\u{74}\u{62}\u{6c}\u{27}\u{3e}"))
(assert (= x_61 (str.++ x_59 literal_60)))
(assert (= x_62 (str.++ x_61 sigmaStar_7)))
(assert (= literal_63 "\u{20}\u{3c}\u{73}\u{70}\u{61}\u{6e}\u{20}\u{63}\u{6c}\u{61}\u{73}\u{73}\u{3d}\u{27}\u{73}\u{6d}\u{61}\u{6c}\u{6c}\u{32}\u{27}\u{3e}\u{28}\u{6d}\u{6d}\u{2f}\u{64}\u{64}\u{2f}\u{79}\u{79}\u{79}\u{79}\u{29}\u{3c}\u{2f}\u{73}\u{70}\u{61}\u{6e}\u{3e}\u{3c}\u{2f}\u{74}\u{64}\u{3e}\u{0d}\u{0a}\u{3c}\u{74}\u{64}\u{20}\u{63}\u{6c}\u{61}\u{73}\u{73}\u{3d}\u{27}\u{74}\u{62}\u{6c}\u{27}\u{3e}\u{3c}\u{73}\u{65}\u{6c}\u{65}\u{63}\u{74}\u{20}\u{6e}\u{61}\u{6d}\u{65}\u{3d}\u{27}\u{75}\u{73}\u{65}\u{72}\u{5f}\u{6d}\u{6f}\u{6e}\u{74}\u{68}\u{27}\u{20}\u{63}\u{6c}\u{61}\u{73}\u{73}\u{3d}\u{27}\u{74}\u{65}\u{78}\u{74}\u{62}\u{6f}\u{78}\u{27}\u{3e}\u{5c}\u{6e}\u{3c}\u{6f}\u{70}\u{74}\u{69}\u{6f}\u{6e}\u{3e}\u{2d}\u{2d}\u{3c}\u{2f}\u{6f}\u{70}\u{74}\u{69}\u{6f}\u{6e}\u{3e}\u{5c}\u{6e}"))
(assert (= x_64 (str.++ x_62 literal_63)))
(assert (str.in_re x_64 (re.++ (re.* re.allchar) (re.++ (str.to_re "\u{5c}\u{3c}\u{53}\u{43}\u{52}\u{49}\u{50}\u{54}") (re.* re.allchar)))))
(check-sat)
(exit)
